decision_x1=[0,4];
decision_x2=[0,4];
decision_x3=[0,4];
decision_x4=[0,4];
decision_x5=[0,4];
decision_x6=[0,4];
decision_x7=[0,4];
decision_x8=[0,4];
decision_x9=[0,4];
decision_x10=[0,4];
decision_x11=[0,4];
decision_x12=[0,4];
decision_x13=[0,4];
decision_x14=[0,4];
decision_x15=[0,4];
random_y1=[0,4];
random_y2=[0,4];
random_y3=[0,4];
constraint_x3_x1=[
0,1,7.6|
0,2,7.5|
0,3,8.4|
0,4,7.9|
1,0,9.2|
1,2,10|
1,3,6.2|
1,4,7.8|
2,0,1.1|
2,1,9.8|
2,3,8.8|
2,4,5.7|
3,0,6.3|
3,1,5.4|
3,2,1.6|
3,4,7.8|
4,0,4|
4,1,2.9|
4,2,2.1|
4,3,3.9|
];
constraint_x3_x2=[
0,1,10|
0,2,2.8|
0,3,8.5|
0,4,5.5|
1,0,9.8|
1,2,9|
1,3,6.4|
1,4,0.049|
2,0,1.2|
2,1,0.85|
2,3,9.8|
2,4,4.1|
3,0,4|
3,1,5.8|
3,2,9.1|
3,4,0.38|
4,0,7.4|
4,1,9|
4,2,1.2|
4,3,5.4|
];
constraint_x4_x1=[
0,1,10|
0,2,3|
0,3,7.7|
0,4,2.3|
1,0,5.9|
1,2,3.7|
1,3,7.9|
1,4,5|
2,0,4.6|
2,1,9.7|
2,3,6.8|
2,4,2.4|
3,0,2.7|
3,1,8.6|
3,2,9.8|
3,4,2|
4,0,1.8|
4,1,6.5|
4,2,0.7|
4,3,0.54|
];
constraint_x4_x3=[
0,1,8.7|
0,2,1.2|
0,3,0.3|
0,4,8.6|
1,0,8.9|
1,2,9.7|
1,3,0.054|
1,4,7|
2,0,7.9|
2,1,9.5|
2,3,2.4|
2,4,0.1|
3,0,2.4|
3,1,4.2|
3,2,1.5|
3,4,3.6|
4,0,9.1|
4,1,9.5|
4,2,4.9|
4,3,8.3|
];
constraint_x5_x1=[
0,1,0.64|
0,2,6.9|
0,3,0.81|
0,4,3.6|
1,0,1.3|
1,2,3.5|
1,3,6.3|
1,4,9.7|
2,0,0.4|
2,1,9.4|
2,3,0.64|
2,4,9.8|
3,0,9.1|
3,1,4.1|
3,2,0.65|
3,4,6.1|
4,0,2.5|
4,1,2.9|
4,2,1.3|
4,3,3.5|
];
constraint_x5_x2=[
0,1,4.3|
0,2,4|
0,3,1.7|
0,4,6.6|
1,0,0.04|
1,2,0.65|
1,3,7|
1,4,7.5|
2,0,4.9|
2,1,3.4|
2,3,7.6|
2,4,7.9|
3,0,0.68|
3,1,4.1|
3,2,3.9|
3,4,2|
4,0,3.9|
4,1,7.1|
4,2,8.2|
4,3,7.9|
];
constraint_x6_x1=[
0,1,8.5|
0,2,5.8|
0,3,4.6|
0,4,7.2|
1,0,8.6|
1,2,3.4|
1,3,9.2|
1,4,4.8|
2,0,1.2|
2,1,7.8|
2,3,5.8|
2,4,4.2|
3,0,5.8|
3,1,1|
3,2,4.3|
3,4,2.2|
4,0,3.8|
4,1,2.2|
4,2,3.1|
4,3,0.25|
];
constraint_x6_x2=[
0,1,3.3|
0,2,8.5|
0,3,10|
0,4,3.6|
1,0,2.1|
1,2,1.9|
1,3,0.47|
1,4,3.1|
2,0,6|
2,1,9.6|
2,3,7.8|
2,4,0.45|
3,0,2.6|
3,1,9.5|
3,2,7.8|
3,4,4.3|
4,0,7.6|
4,1,5.2|
4,2,7.9|
4,3,3.7|
];
constraint_x6_x3=[
0,1,4.7|
0,2,7.5|
0,3,4.6|
0,4,7.1|
1,0,6.1|
1,2,8|
1,3,8|
1,4,3.8|
2,0,8.2|
2,1,6.9|
2,3,5.4|
2,4,4.3|
3,0,2.8|
3,1,7.2|
3,2,0.15|
3,4,6.8|
4,0,5.4|
4,1,8|
4,2,3.7|
4,3,6.5|
];
constraint_x6_x5=[
0,1,0.43|
0,2,6.1|
0,3,1.9|
0,4,0.082|
1,0,0.92|
1,2,6.7|
1,3,5.5|
1,4,9.4|
2,0,7.5|
2,1,2.6|
2,3,7.4|
2,4,4.2|
3,0,7.1|
3,1,4|
3,2,4.8|
3,4,9|
4,0,2.2|
4,1,3|
4,2,4.3|
4,3,8.4|
];
constraint_x7_x1=[
0,1,4.2|
0,2,8.5|
0,3,8.9|
0,4,3.3|
1,0,6.6|
1,2,5.7|
1,3,6.8|
1,4,6.5|
2,0,3.9|
2,1,0.49|
2,3,1.6|
2,4,5|
3,0,2.7|
3,1,0.028|
3,2,0.14|
3,4,2.3|
4,0,9.7|
4,1,2|
4,2,9.9|
4,3,4.2|
];
constraint_x7_x2=[
0,1,0.8|
0,2,8|
0,3,4.2|
0,4,2.4|
1,0,9.3|
1,2,1.2|
1,3,5.1|
1,4,4.2|
2,0,5.9|
2,1,4.1|
2,3,7.6|
2,4,3.9|
3,0,2.7|
3,1,7.5|
3,2,8.3|
3,4,2.6|
4,0,7.9|
4,1,3|
4,2,3.5|
4,3,9.9|
];
constraint_x7_x3=[
0,1,5.4|
0,2,3.8|
0,3,5.4|
0,4,7.4|
1,0,3.1|
1,2,2.9|
1,3,7.3|
1,4,8|
2,0,0.65|
2,1,3.6|
2,3,7.7|
2,4,7.5|
3,0,7.4|
3,1,9.2|
3,2,0.87|
3,4,0.93|
4,0,7.1|
4,1,7.7|
4,2,2.6|
4,3,3.9|
];
constraint_x7_x5=[
0,1,8.2|
0,2,5|
0,3,3.6|
0,4,9.2|
1,0,4|
1,2,4.3|
1,3,4.6|
1,4,3.9|
2,0,4.8|
2,1,3.9|
2,3,9.1|
2,4,2.2|
3,0,1.2|
3,1,6.9|
3,2,5.3|
3,4,2.2|
4,0,7.7|
4,1,9.1|
4,2,1.3|
4,3,7.4|
];
constraint_x8_x2=[
0,1,1.6|
0,2,4.6|
0,3,1.7|
0,4,4.3|
1,0,6.7|
1,2,2.2|
1,3,1.5|
1,4,9.7|
2,0,5.3|
2,1,9.6|
2,3,9.3|
2,4,4.9|
3,0,1.8|
3,1,8.7|
3,2,7|
3,4,3.5|
4,0,5.6|
4,1,2.7|
4,2,8.4|
4,3,1.9|
];
constraint_x8_x3=[
0,1,4.1|
0,2,7|
0,3,4.8|
0,4,5.3|
1,0,8.6|
1,2,5.8|
1,3,7.5|
1,4,9.6|
2,0,3.1|
2,1,6.8|
2,3,9.3|
2,4,0.39|
3,0,9.1|
3,1,3.4|
3,2,0.78|
3,4,2.6|
4,0,1|
4,1,4.9|
4,2,7.4|
4,3,0.8|
];
constraint_x8_x5=[
0,1,2.9|
0,2,5.7|
0,3,3.6|
0,4,1.5|
1,0,5|
1,2,8.7|
1,3,4.7|
1,4,7.5|
2,0,7.6|
2,1,2.2|
2,3,4.7|
2,4,2.6|
3,0,6.8|
3,1,8.7|
3,2,7.6|
3,4,9.1|
4,0,9.4|
4,1,0.27|
4,2,9.5|
4,3,8.5|
];
constraint_x9_x2=[
0,1,1.6|
0,2,3.5|
0,3,2.6|
0,4,0.39|
1,0,8.2|
1,2,6.5|
1,3,3.9|
1,4,0.77|
2,0,7.8|
2,1,6.3|
2,3,3.9|
2,4,0.54|
3,0,8.2|
3,1,8.2|
3,2,6.4|
3,4,7.1|
4,0,5.8|
4,1,9.6|
4,2,9.9|
4,3,4.1|
];
constraint_x9_x3=[
0,1,7|
0,2,8.9|
0,3,9.5|
0,4,7.4|
1,0,8.7|
1,2,7.8|
1,3,5.1|
1,4,7.3|
2,0,4.1|
2,1,10|
2,3,9.9|
2,4,0.6|
3,0,9.5|
3,1,5.6|
3,2,6.9|
3,4,6.9|
4,0,8.4|
4,1,2.2|
4,2,0.5|
4,3,8|
];
constraint_x9_x5=[
0,1,8.3|
0,2,3.3|
0,3,4.8|
0,4,4.2|
1,0,6.2|
1,2,7.1|
1,3,1.5|
1,4,3.4|
2,0,3.7|
2,1,1.5|
2,3,7.3|
2,4,6|
3,0,6|
3,1,7.7|
3,2,5.5|
3,4,4.3|
4,0,6.3|
4,1,3.5|
4,2,7.8|
4,3,6.9|
];
constraint_x9_x6=[
0,1,6.4|
0,2,0.81|
0,3,4.1|
0,4,3.2|
1,0,1.3|
1,2,0.73|
1,3,9|
1,4,6.4|
2,0,6.8|
2,1,9.7|
2,3,9.3|
2,4,5.1|
3,0,3.9|
3,1,1.2|
3,2,1.8|
3,4,2.3|
4,0,2.6|
4,1,4|
4,2,4.2|
4,3,6.3|
];
constraint_x9_x7=[
0,1,5.9|
0,2,8.3|
0,3,0.3|
0,4,5.2|
1,0,6.4|
1,2,7|
1,3,7|
1,4,6.4|
2,0,1.1|
2,1,1.6|
2,3,7|
2,4,7.9|
3,0,2.8|
3,1,2.1|
3,2,9|
3,4,7.4|
4,0,2.5|
4,1,5.9|
4,2,4.2|
4,3,9.4|
];
constraint_x9_x8=[
0,1,7.4|
0,2,3.6|
0,3,5.3|
0,4,5.7|
1,0,4.6|
1,2,0.077|
1,3,2.8|
1,4,1|
2,0,1.5|
2,1,3.7|
2,3,8.7|
2,4,9.8|
3,0,6.9|
3,1,5.1|
3,2,4.1|
3,4,8.8|
4,0,5.2|
4,1,7.3|
4,2,7.8|
4,3,9.8|
];
constraint_x10_x3=[
0,1,4|
0,2,4.3|
0,3,8.8|
0,4,9.9|
1,0,4.4|
1,2,3.2|
1,3,4.9|
1,4,7.7|
2,0,6|
2,1,3.3|
2,3,4|
2,4,1.3|
3,0,7.6|
3,1,2.3|
3,2,8|
3,4,7.5|
4,0,6.4|
4,1,0.27|
4,2,0.27|
4,3,0.63|
];
constraint_x10_x5=[
0,1,4.6|
0,2,3|
0,3,4.7|
0,4,9.4|
1,0,3.1|
1,2,4|
1,3,5.9|
1,4,0.57|
2,0,6.9|
2,1,1.3|
2,3,5.6|
2,4,7.6|
3,0,3.8|
3,1,5.7|
3,2,3.9|
3,4,2|
4,0,7.5|
4,1,2.9|
4,2,6.2|
4,3,1.2|
];
constraint_x10_x7=[
0,1,0.56|
0,2,9.8|
0,3,6.1|
0,4,5.2|
1,0,1.9|
1,2,5.6|
1,3,2.9|
1,4,4.3|
2,0,8|
2,1,3.4|
2,3,5.7|
2,4,7.5|
3,0,6|
3,1,8|
3,2,0.19|
3,4,7.7|
4,0,8.2|
4,1,8.9|
4,2,9.1|
4,3,3.8|
];
constraint_x11_x2=[
0,1,3.5|
0,2,9.5|
0,3,1.8|
0,4,7.6|
1,0,1.3|
1,2,7.3|
1,3,8.9|
1,4,0.15|
2,0,9.3|
2,1,0.26|
2,3,7.1|
2,4,0.51|
3,0,2.2|
3,1,2.8|
3,2,7.3|
3,4,4.2|
4,0,0.23|
4,1,0.76|
4,2,9.5|
4,3,0.025|
];
constraint_x11_x5=[
0,1,4.1|
0,2,6.1|
0,3,3|
0,4,9.3|
1,0,9.3|
1,2,4.7|
1,3,5.5|
1,4,3.3|
2,0,9.9|
2,1,3.9|
2,3,4.9|
2,4,5.3|
3,0,2.4|
3,1,1.5|
3,2,0.58|
3,4,7.7|
4,0,4.2|
4,1,1.1|
4,2,0.15|
4,3,5.5|
];
constraint_x11_x7=[
0,1,1.2|
0,2,1.6|
0,3,4.1|
0,4,4.9|
1,0,1.1|
1,2,3.9|
1,3,1.8|
1,4,5.9|
2,0,7.9|
2,1,9.8|
2,3,7.5|
2,4,5.6|
3,0,4.5|
3,1,4.6|
3,2,6.9|
3,4,7.8|
4,0,3.1|
4,1,0.98|
4,2,9.7|
4,3,4|
];
constraint_x11_x8=[
0,1,4.1|
0,2,3.1|
0,3,1.5|
0,4,8.9|
1,0,1.7|
1,2,7.1|
1,3,6.9|
1,4,0.46|
2,0,6.5|
2,1,1.5|
2,3,3.7|
2,4,2.5|
3,0,8.9|
3,1,4.7|
3,2,9.5|
3,4,8|
4,0,8.2|
4,1,5.1|
4,2,8.8|
4,3,5.2|
];
constraint_x11_x9=[
0,1,2|
0,2,6.8|
0,3,2.3|
0,4,3.2|
1,0,3.7|
1,2,3.3|
1,3,4.1|
1,4,7.3|
2,0,2.7|
2,1,4.8|
2,3,9.7|
2,4,1.1|
3,0,1|
3,1,5.6|
3,2,2.5|
3,4,5.3|
4,0,6.8|
4,1,8|
4,2,5|
4,3,7.1|
];
constraint_x12_x1=[
0,1,6.9|
0,2,8.9|
0,3,2.4|
0,4,8.3|
1,0,6.4|
1,2,0.23|
1,3,1.1|
1,4,2.7|
2,0,9|
2,1,5.1|
2,3,1.4|
2,4,5.1|
3,0,0.25|
3,1,9.2|
3,2,2.3|
3,4,9.9|
4,0,7|
4,1,0.65|
4,2,1.1|
4,3,5.6|
];
constraint_x12_x2=[
0,1,0.46|
0,2,2|
0,3,6|
0,4,8.1|
1,0,6.2|
1,2,2.3|
1,3,1.2|
1,4,1.8|
2,0,5.5|
2,1,3.5|
2,3,4.7|
2,4,1.5|
3,0,4.9|
3,1,1.6|
3,2,9.4|
3,4,6.9|
4,0,5.6|
4,1,1.6|
4,2,5.4|
4,3,3.8|
];
constraint_x12_x3=[
0,1,6.9|
0,2,6.1|
0,3,5.1|
0,4,7.3|
1,0,6.3|
1,2,5.8|
1,3,5.1|
1,4,9.4|
2,0,9.4|
2,1,8.6|
2,3,6.6|
2,4,4|
3,0,4.1|
3,1,4.4|
3,2,1.3|
3,4,5.9|
4,0,4.1|
4,1,8.3|
4,2,8.3|
4,3,1.2|
];
constraint_x12_x4=[
0,1,4.7|
0,2,8.8|
0,3,7.6|
0,4,9.4|
1,0,7|
1,2,8.4|
1,3,8.7|
1,4,5.2|
2,0,10|
2,1,3.8|
2,3,8.9|
2,4,1.2|
3,0,1.4|
3,1,8.4|
3,2,3.5|
3,4,9.3|
4,0,7.2|
4,1,2.3|
4,2,7.9|
4,3,7.7|
];
constraint_x12_x6=[
0,1,0.93|
0,2,2|
0,3,8.9|
0,4,3.2|
1,0,2.2|
1,2,7.7|
1,3,1.4|
1,4,7|
2,0,9.5|
2,1,0.32|
2,3,1.2|
2,4,0.86|
3,0,2.9|
3,1,5.9|
3,2,9.5|
3,4,1.9|
4,0,7.7|
4,1,5.3|
4,2,9.3|
4,3,1.7|
];
constraint_x12_x8=[
0,1,9.4|
0,2,2.1|
0,3,7|
0,4,1.3|
1,0,2|
1,2,4.7|
1,3,4.9|
1,4,4.3|
2,0,9.4|
2,1,8.7|
2,3,10|
2,4,8.5|
3,0,5.8|
3,1,9.9|
3,2,3.2|
3,4,8.8|
4,0,1.7|
4,1,6.3|
4,2,8.9|
4,3,8.9|
];
constraint_x12_x9=[
0,1,6|
0,2,2.7|
0,3,7.9|
0,4,4.7|
1,0,3|
1,2,0.5|
1,3,1.1|
1,4,8.1|
2,0,3.9|
2,1,6.6|
2,3,9.2|
2,4,1.4|
3,0,6.8|
3,1,4.7|
3,2,0.84|
3,4,6.3|
4,0,5.7|
4,1,9.2|
4,2,1.1|
4,3,4.1|
];
constraint_x12_x11=[
0,1,7.8|
0,2,2.3|
0,3,8.9|
0,4,2.9|
1,0,9.8|
1,2,8|
1,3,6.5|
1,4,3.3|
2,0,9.6|
2,1,0.37|
2,3,2.9|
2,4,2.1|
3,0,1.1|
3,1,0.14|
3,2,6.5|
3,4,2.7|
4,0,7.5|
4,1,2.3|
4,2,8.8|
4,3,3.1|
];
constraint_x13_x5=[
0,1,4.1|
0,2,0.36|
0,3,4.5|
0,4,4.2|
1,0,8.8|
1,2,0.77|
1,3,2.9|
1,4,8.1|
2,0,8.7|
2,1,7.6|
2,3,0.88|
2,4,5.7|
3,0,9.4|
3,1,8.6|
3,2,5.1|
3,4,8.8|
4,0,5.3|
4,1,2.2|
4,2,0.19|
4,3,9.2|
];
constraint_x13_x6=[
0,1,6.8|
0,2,1.4|
0,3,3.4|
0,4,2.3|
1,0,8|
1,2,5.2|
1,3,8.1|
1,4,5.2|
2,0,3.8|
2,1,1.5|
2,3,2.5|
2,4,2.5|
3,0,9.9|
3,1,5.2|
3,2,7.9|
3,4,6.5|
4,0,2.7|
4,1,6.4|
4,2,2.4|
4,3,7.7|
];
constraint_x13_x8=[
0,1,2.5|
0,2,2.2|
0,3,1.7|
0,4,4.7|
1,0,9.1|
1,2,8.9|
1,3,9|
1,4,5.2|
2,0,6.9|
2,1,1.1|
2,3,0.49|
2,4,9.3|
3,0,7.4|
3,1,8.5|
3,2,2.9|
3,4,7.4|
4,0,0.07|
4,1,2|
4,2,8.2|
4,3,5.2|
];
constraint_x13_x9=[
0,1,3.4|
0,2,3|
0,3,9.9|
0,4,0.55|
1,0,1|
1,2,9|
1,3,0.53|
1,4,3.7|
2,0,0.88|
2,1,7.4|
2,3,2.5|
2,4,9.5|
3,0,4.1|
3,1,0.95|
3,2,2.4|
3,4,8.4|
4,0,4.6|
4,1,6.7|
4,2,1.9|
4,3,0.77|
];
constraint_x14_x7=[
0,1,9.8|
0,2,8.1|
0,3,9.9|
0,4,0.72|
1,0,0.23|
1,2,1|
1,3,5|
1,4,3.7|
2,0,6.2|
2,1,4.7|
2,3,8.3|
2,4,2.5|
3,0,0.043|
3,1,4.7|
3,2,6.7|
3,4,4.7|
4,0,3.1|
4,1,9.2|
4,2,2|
4,3,5.6|
];
constraint_x14_x8=[
0,1,0.5|
0,2,5.3|
0,3,5.9|
0,4,7|
1,0,7.5|
1,2,4.4|
1,3,7.2|
1,4,1.9|
2,0,7.6|
2,1,7.6|
2,3,4.9|
2,4,7|
3,0,7.7|
3,1,4.6|
3,2,2.7|
3,4,9.1|
4,0,8.9|
4,1,2.4|
4,2,7.6|
4,3,5.8|
];
constraint_x14_x10=[
0,1,1.1|
0,2,9.1|
0,3,8.2|
0,4,2.2|
1,0,3.3|
1,2,7.9|
1,3,4.3|
1,4,2.9|
2,0,6.1|
2,1,0.43|
2,3,5.1|
2,4,1.1|
3,0,5.8|
3,1,0.49|
3,2,2.7|
3,4,5.3|
4,0,2.5|
4,1,3.4|
4,2,2.3|
4,3,3.5|
];
constraint_x14_x11=[
0,1,8.8|
0,2,3.3|
0,3,3.6|
0,4,1.9|
1,0,5.4|
1,2,3|
1,3,9.5|
1,4,9|
2,0,9.9|
2,1,0.58|
2,3,1.4|
2,4,0.81|
3,0,1.1|
3,1,7.8|
3,2,7.4|
3,4,4.7|
4,0,8.8|
4,1,7.4|
4,2,9.1|
4,3,9.1|
];
constraint_x14_x13=[
0,1,3.3|
0,2,5.9|
0,3,1.6|
0,4,4.4|
1,0,7.5|
1,2,8.1|
1,3,7|
1,4,9.2|
2,0,2.2|
2,1,9|
2,3,0.19|
2,4,1.3|
3,0,7.2|
3,1,3.6|
3,2,2.8|
3,4,7.4|
4,0,0.21|
4,1,7.6|
4,2,9.8|
4,3,6.7|
];
constraint_x15_x3=[
0,1,1.3|
0,2,8.3|
0,3,2.9|
0,4,0.74|
1,0,4.1|
1,2,1.8|
1,3,1|
1,4,7.5|
2,0,4.8|
2,1,7.7|
2,3,1.9|
2,4,5.7|
3,0,8.6|
3,1,6.9|
3,2,8.6|
3,4,1.7|
4,0,4.8|
4,1,9.2|
4,2,2.8|
4,3,8.5|
];
constraint_x15_x4=[
0,1,5.5|
0,2,2.1|
0,3,5.1|
0,4,8.2|
1,0,3.2|
1,2,8|
1,3,6.3|
1,4,0.28|
2,0,7.4|
2,1,8|
2,3,8|
2,4,4|
3,0,7.8|
3,1,3.6|
3,2,1.6|
3,4,5|
4,0,0.32|
4,1,8.2|
4,2,3.6|
4,3,5.6|
];
constraint_x15_x7=[
0,1,0.9|
0,2,9.6|
0,3,9.7|
0,4,9.2|
1,0,5.8|
1,2,4.2|
1,3,8.5|
1,4,1.5|
2,0,1.2|
2,1,2|
2,3,1.5|
2,4,7.9|
3,0,4.2|
3,1,3.2|
3,2,7.2|
3,4,7.9|
4,0,9|
4,1,8.4|
4,2,8.3|
4,3,0.84|
];
constraint_x15_x9=[
0,1,6.3|
0,2,9.3|
0,3,7.8|
0,4,3|
1,0,3.2|
1,2,6.9|
1,3,1.7|
1,4,4.9|
2,0,3.3|
2,1,2.8|
2,3,5.7|
2,4,6.4|
3,0,3.9|
3,1,2.9|
3,2,5|
3,4,3.5|
4,0,7.5|
4,1,6.1|
4,2,6.3|
4,3,0.49|
];
constraint_x15_x12=[
0,1,7.3|
0,2,9.4|
0,3,9.8|
0,4,8.6|
1,0,7.1|
1,2,5|
1,3,4.9|
1,4,5.2|
2,0,2.6|
2,1,0.22|
2,3,1.1|
2,4,9.6|
3,0,2.4|
3,1,7.9|
3,2,0.27|
3,4,3.5|
4,0,5.1|
4,1,9|
4,2,5.3|
4,3,6.6|
];
constraint_x1_y1=[
0,0,3.1|
0,1,0.8|
0,2,6.5|
0,3,0.086|
0,4,0.92|
1,0,6.9|
1,1,8.7|
1,2,1.9|
1,3,2.8|
1,4,7.8|
2,0,5.6|
2,1,7.3|
2,2,8.9|
2,3,8.3|
2,4,4.4|
3,0,3.7|
3,1,6.3|
3,2,7.5|
3,3,0.085|
3,4,2.9|
4,0,9.4|
4,1,5.2|
4,2,1.1|
4,3,1.2|
4,4,8.7|
];
constraint_x2_y2=[
0,0,0.64|
0,1,3.2|
0,2,6.1|
0,3,1.2|
0,4,5.1|
1,0,5.7|
1,1,5.9|
1,2,3.8|
1,3,5.5|
1,4,8.7|
2,0,4.2|
2,1,7.1|
2,2,3.8|
2,3,0.15|
2,4,4.7|
3,0,2.5|
3,1,3.3|
3,2,5.8|
3,3,1.1|
3,4,8.6|
4,0,2.4|
4,1,3.3|
4,2,8.4|
4,3,4.1|
4,4,8.6|
];
constraint_x3_y3=[
0,0,10|
0,1,4.5|
0,2,9.8|
0,3,9.8|
0,4,2.1|
1,0,9.7|
1,1,8.1|
1,2,5.8|
1,3,6.2|
1,4,3.1|
2,0,7.5|
2,1,8.1|
2,2,8.1|
2,3,2.9|
2,4,2.1|
3,0,5|
3,1,3.2|
3,2,4.2|
3,3,9.7|
3,4,4|
4,0,8.6|
4,1,2.6|
4,2,9.3|
4,3,0.63|
4,4,0.52|
];
initial_distribution_y1=[0.18,0.24,0.24,0.052,0.29];
initial_distribution_y2=[0.26,0.16,0.27,0.15,0.16];
initial_distribution_y3=[0.12,0.23,0.25,0.15,0.24];
transition_y1=[
0.23,0.23,0.0091,0.27,0.25|
0.32,0.37,0.13,0.069,0.11|
0.18,0.37,0.011,0.29,0.15|
0.24,0.17,0.23,0.14,0.22|
0.28,0.17,0.25,0.062,0.24|
];
transition_y2=[
0.24,0.23,0.21,0.19,0.13|
0.045,0.19,0.35,0.2,0.22|
0.18,0.29,0.37,0.15,0.0071|
0.17,0.23,0.3,0.19,0.11|
0.032,0.4,0.24,0.048,0.28|
];
transition_y3=[
0.17,0.27,0.21,0.23,0.12|
0.37,0.11,0.24,0.21,0.078|
0.088,0.21,0.29,0.28,0.13|
0.12,0.21,0.25,0.089,0.34|
0.16,0.38,0.11,0.33,0.019|
];
